robust/generate/spp_dkp_Lefebvre_et_al_2026/src/shortest_path_3_8.kp
50
100

[8.24 3.8 4.26 6.61 6.29 16.61]

[88 86 100 35 74 76]
